SCIP version 5.0.0 [precision: 8 byte] [memory: block] [mode: optimized] [LP solver: NONE] [GitHash: 3bbd232]
Copyright (C) 2002-2017 Konrad-Zuse-Zentrum fuer Informationstechnik Berlin (ZIB)

External codes: 
  Readline EditLine w  GNU library for command line editing (gnu.org/s/readline)
  CppAD 20160000.1     Algorithmic Differentiation of C++ algorithms developed by B. Bell (www.coin-or.org/CppAD)
  ZLIB 1.2.5           General purpose compression library by J. Gailly and M. Adler (zlib.net)
  GMP 6.1.2            GNU Multiple Precision Arithmetic Library developed by T. Granlund (gmplib.org)

user parameter file <scip.set> not found - using default parameters

read problem <../../Split_data/output/statG/6/0_sample_statG.logreg>
============

File name	:	../../Split_data/output/statG/6/0_sample_statG.logreg
Problem name 	:	0_sample_statG
Number of data	:	800
Number of var	:	61
The given data has linear dependence
13 sets of column vector are linearly dependent:

[dim=1] time: 0.037173
[dim=2] time: 0.079776
[dim=3] time: 0.119767
[dim=4] time: 0.159926
[dim=5] time: 0.200876
[dim=6] time: 0.241652
[dim=7] time: 0.28366
[dim=8] time: 0.337289
[dim=9] time: 0.378662
[dim=10] time: 0.420037
[dim=11] time: 0.469344
[dim=12] time: 0.508679
[dim=13] time: 0.54813
[dim=14] time: 0.587596
[dim=15] time: 0.634517
[dim=16] time: 0.672949
[dim=17] time: 0.714803
[dim=18] time: 0.753876
[dim=19] time: 0.791046
[dim=20] time: 0.828564
[dim=21] time: 0.878443
[dim=22] time: 0.91293
[dim=23] Time of forward = 0.947348sec.
AIC: 759.645
k: 22

[dim=48] time: 0.115392
[dim=47] time: 0.203548
[dim=46] time: 0.282518
[dim=45] time: 0.34029
[dim=44] time: 0.404266
[dim=43] time: 0.462368
[dim=42] time: 0.534456
[dim=41] time: 0.589829
[dim=40] time: 0.638944
[dim=39] time: 0.694902
[dim=38] time: 0.760338
[dim=37] time: 0.810465
[dim=36] time: 0.857254
[dim=35] time: 0.903009
[dim=34] time: 0.951222
[dim=33] time: 0.996742
[dim=32] time: 1.03925
[dim=31] time: 1.06932
[dim=30] time: 1.10981
[dim=29] time: 1.15515
[dim=28] Time of backward = 1.18884sec.
AIC: 768.074
k: 29
